N = 11;
H = 5;
T = 2;

avail = array3d(1..N, 1..H, 1..T, [6, 10, 5, 6, 7, 2, 1, 6, 8, 2, 3, 1, 10, 6, 8, 2, 7, 3, 9, 2, 8, 6, 2, 6, 7, 8, 5, 6, 9, 4, 3, 0, 5, 8, 2, 2, 9, 1, 10, 9, 7, 5, 3, 9, 1, 2, 5, 9, 7, 0, 2, 1, 4, 2, 2, 4, 9, 4, 5, 5, 2, 1, 7, 1, 5, 7, 6, 4, 0, 8, 4, 8, 8, 7, 4, 9, 10, 9, 6, 6, 2, 10, 2, 3, 5, 6, 0, 3, 8, 6, 8, 2, 5, 10, 1, 4, 2, 7, 10, 9, 10, 1, 3, 10, 2, 7, 1, 1, 6, 7]);

r = array2d(1..H, 1..T, [3, 0, 2, 5, 3, 1, 4, 4, 3, 5]);
